53
2 107 90 
2 64 25 
2 37 11 
2 88 10 
2 74 9 
3 103 67 34 
2 36 47 
2 48 40 
2 71 109 
3 115 2 41 
3 24 116 84 
3 1 75 60 
2 51 32 
3 112 61 53 
3 4 46 13 
2 17 92 
2 95 97 
3 69 76 58 
2 19 91 
3 83 96 108 
3 43 106 100 
2 105 8 
2 87 20 
2 21 27 
2 57 39 
3 18 72 70 
2 44 3 
1 35 
2 55 45 
3 59 5 99 
3 62 33 89 
3 63 85 16 
2 113 104 
2 118 42 
2 79 22 
2 93 26 
2 30 38 
3 73 102 80 
4 111 78 101 6 
3 7 94 82 
2 66 65 
1 86 
3 31 81 23 
2 110 117 
2 119 28 
1 14 
2 120 52 
2 98 50 
2 114 29 
2 15 54 
2 49 56 
2 77 12 
1 68 
